CLW06
Position Depot: Center
Horizon for Depot: Large
Position of customers: Cluster
Distribution of the demand: Large
Width of time windows: Wide
Distribution of the service: Large

VEHICLE 
NUMBER 	 CAPACITY 
 7 	 	 696 
 
CUSTOMER
CUST NO. 	 XCOORD.  	 YCOORD. 	 DEMAND 	 READY TIME 	 DUE DATE 	 SERVICE TIME 
 0 	 	 500 	 	 500 	 	 0 	 	 0 	 	 2712 	 	 0 
  1 	 	 303 	 	 871 	 	 72 	 	 2097 	 	 2308 	 	 107 
  2 	 	 21 	 	 739 	 	 84 	 	 751 	 	 1174 	 	 110 
  3 	 	 178 	 	 25 	 	 38 	 	 1108 	 	 1595 	 	 134 
  4 	 	 978 	 	 8 	 	 34 	 	 1265 	 	 1764 	 	 158 
  5 	 	 166 	 	 446 	 	 26 	 	 58 	 	 534 	 	 123 
  6 	 	 7 	 	 755 	 	 60 	 	 938 	 	 1359 	 	 170 
  7 	 	 884 	 	 40 	 	 68 	 	 211 	 	 659 	 	 121 
  8 	 	 261 	 	 920 	 	 25 	 	 2294 	 	 2564 	 	 116 
  9 	 	 200 	 	 353 	 	 73 	 	 1935 	 	 2266 	 	 123 
  10 	 	 155 	 	 60 	 	 5 	 	 2087 	 	 2475 	 	 105 
  11 	 	 246 	 	 360 	 	 9 	 	 1754 	 	 2124 	 	 199 
  12 	 	 169 	 	 22 	 	 22 	 	 472 	 	 871 	 	 172 
  13 	 	 843 	 	 46 	 	 15 	 	 1892 	 	 2139 	 	 197 
  14 	 	 2 	 	 736 	 	 89 	 	 374 	 	 606 	 	 166 
  15 	 	 80 	 	 449 	 	 3 	 	 2286 	 	 2712 	 	 198 
  16 	 	 204 	 	 434 	 	 85 	 	 1509 	 	 1785 	 	 185 
  17 	 	 290 	 	 849 	 	 80 	 	 1639 	 	 2105 	 	 129 
  18 	 	 209 	 	 389 	 	 94 	 	 2287 	 	 2712 	 	 148 
  19 	 	 20 	 	 730 	 	 43 	 	 261 	 	 585 	 	 159 
  20 	 	 285 	 	 747 	 	 87 	 	 588 	 	 890 	 	 153 
  21 	 	 184 	 	 405 	 	 12 	 	 42 	 	 464 	 	 162 
  22 	 	 0 	 	 758 	 	 19 	 	 1158 	 	 1531 	 	 181 
  23 	 	 35 	 	 14 	 	 88 	 	 512 	 	 762 	 	 200 
  24 	 	 0 	 	 726 	 	 39 	 	 2327 	 	 2712 	 	 171 
  25 	 	 987 	 	 38 	 	 89 	 	 1701 	 	 2128 	 	 124 
  26 	 	 40 	 	 69 	 	 26 	 	 441 	 	 693 	 	 171 
  27 	 	 935 	 	 17 	 	 10 	 	 1266 	 	 1554 	 	 175 
  28 	 	 39 	 	 337 	 	 21 	 	 204 	 	 602 	 	 118 
  29 	 	 369 	 	 107 	 	 53 	 	 675 	 	 1141 	 	 170 
  30 	 	 5 	 	 737 	 	 58 	 	 787 	 	 1005 	 	 133 
  31 	 	 964 	 	 25 	 	 33 	 	 2128 	 	 2469 	 	 178 
  32 	 	 257 	 	 49 	 	 63 	 	 1547 	 	 1910 	 	 169 
  33 	 	 68 	 	 31 	 	 93 	 	 2249 	 	 2606 	 	 182 
  34 	 	 140 	 	 265 	 	 61 	 	 264 	 	 472 	 	 141 
  35 	 	 40 	 	 588 	 	 55 	 	 787 	 	 1246 	 	 197 
  36 	 	 111 	 	 695 	 	 70 	 	 615 	 	 922 	 	 128 
  37 	 	 34 	 	 770 	 	 50 	 	 2247 	 	 2654 	 	 199 
  38 	 	 818 	 	 4 	 	 50 	 	 281 	 	 648 	 	 130 
  39 	 	 13 	 	 734 	 	 74 	 	 1670 	 	 2063 	 	 155 
  40 	 	 852 	 	 1 	 	 41 	 	 848 	 	 1102 	 	 159 
  41 	 	 321 	 	 831 	 	 81 	 	 448 	 	 869 	 	 137 
  42 	 	 87 	 	 674 	 	 41 	 	 2497 	 	 2712 	 	 109 
  43 	 	 983 	 	 77 	 	 69 	 	 470 	 	 706 	 	 100 
  44 	 	 154 	 	 445 	 	 63 	 	 161 	 	 385 	 	 137 
  45 	 	 147 	 	 466 	 	 34 	 	 1678 	 	 2139 	 	 161 
  46 	 	 273 	 	 840 	 	 46 	 	 97 	 	 574 	 	 184 
  47 	 	 382 	 	 976 	 	 75 	 	 520 	 	 963 	 	 122 
  48 	 	 47 	 	 812 	 	 56 	 	 817 	 	 1127 	 	 134 
  49 	 	 242 	 	 59 	 	 3 	 	 2192 	 	 2426 	 	 140 
  50 	 	 82 	 	 430 	 	 2 	 	 2234 	 	 2574 	 	 160 
  51 	 	 143 	 	 535 	 	 12 	 	 1916 	 	 2190 	 	 128 
  52 	 	 294 	 	 872 	 	 46 	 	 2271 	 	 2485 	 	 196 
  53 	 	 217 	 	 26 	 	 91 	 	 119 	 	 607 	 	 162 
  54 	 	 54 	 	 675 	 	 53 	 	 1132 	 	 1398 	 	 191 
  55 	 	 912 	 	 4 	 	 21 	 	 1008 	 	 1364 	 	 193 
  56 	 	 230 	 	 984 	 	 32 	 	 2081 	 	 2362 	 	 148 
  57 	 	 262 	 	 371 	 	 98 	 	 452 	 	 788 	 	 168 
  58 	 	 208 	 	 428 	 	 62 	 	 174 	 	 476 	 	 113 
  59 	 	 187 	 	 440 	 	 59 	 	 878 	 	 1218 	 	 100 
  60 	 	 137 	 	 464 	 	 76 	 	 1434 	 	 1780 	 	 199 
  61 	 	 296 	 	 836 	 	 51 	 	 486 	 	 716 	 	 155 
  62 	 	 17 	 	 739 	 	 56 	 	 1346 	 	 1776 	 	 198 
  63 	 	 160 	 	 15 	 	 98 	 	 455 	 	 937 	 	 192 
  64 	 	 88 	 	 827 	 	 86 	 	 1032 	 	 1367 	 	 116 
  65 	 	 111 	 	 998 	 	 58 	 	 1636 	 	 1851 	 	 145 
  66 	 	 144 	 	 716 	 	 71 	 	 259 	 	 653 	 	 136 
  67 	 	 940 	 	 1 	 	 39 	 	 452 	 	 938 	 	 103 
  68 	 	 342 	 	 827 	 	 84 	 	 1459 	 	 1890 	 	 120 
  69 	 	 223 	 	 811 	 	 3 	 	 420 	 	 842 	 	 130 
  70 	 	 268 	 	 36 	 	 57 	 	 384 	 	 614 	 	 100 
  71 	 	 135 	 	 39 	 	 90 	 	 1550 	 	 1950 	 	 153 
  72 	 	 212 	 	 445 	 	 63 	 	 1475 	 	 1812 	 	 122 
  73 	 	 984 	 	 138 	 	 37 	 	 1457 	 	 1951 	 	 199 
  74 	 	 187 	 	 2 	 	 84 	 	 1052 	 	 1305 	 	 166 
  75 	 	 269 	 	 100 	 	 100 	 	 834 	 	 1233 	 	 180 
  76 	 	 210 	 	 27 	 	 37 	 	 1302 	 	 1705 	 	 139 
  77 	 	 234 	 	 963 	 	 61 	 	 305 	 	 625 	 	 168 
  78 	 	 180 	 	 46 	 	 54 	 	 2066 	 	 2446 	 	 102 
  79 	 	 864 	 	 49 	 	 51 	 	 195 	 	 637 	 	 136 
  80 	 	 174 	 	 89 	 	 24 	 	 1499 	 	 1725 	 	 123 
  81 	 	 140 	 	 390 	 	 32 	 	 967 	 	 1446 	 	 172 
  82 	 	 184 	 	 115 	 	 43 	 	 893 	 	 1283 	 	 190 
  83 	 	 162 	 	 39 	 	 60 	 	 1893 	 	 2258 	 	 150 
  84 	 	 252 	 	 920 	 	 46 	 	 2162 	 	 2468 	 	 160 
  85 	 	 311 	 	 822 	 	 38 	 	 426 	 	 854 	 	 196 
  86 	 	 309 	 	 896 	 	 7 	 	 2197 	 	 2535 	 	 135 
  87 	 	 321 	 	 417 	 	 96 	 	 326 	 	 732 	 	 137 
  88 	 	 991 	 	 14 	 	 70 	 	 1815 	 	 2207 	 	 168 
  89 	 	 124 	 	 43 	 	 88 	 	 2137 	 	 2430 	 	 176 
  90 	 	 115 	 	 456 	 	 89 	 	 1939 	 	 2333 	 	 150 
  91 	 	 322 	 	 739 	 	 47 	 	 1582 	 	 1966 	 	 111 
  92 	 	 43 	 	 737 	 	 24 	 	 1392 	 	 1827 	 	 188 
  93 	 	 193 	 	 487 	 	 81 	 	 318 	 	 541 	 	 141 
  94 	 	 13 	 	 703 	 	 36 	 	 1107 	 	 1550 	 	 116 
  95 	 	 986 	 	 46 	 	 93 	 	 650 	 	 854 	 	 139 
  96 	 	 221 	 	 404 	 	 94 	 	 1545 	 	 1962 	 	 179 
  97 	 	 359 	 	 634 	 	 2 	 	 2246 	 	 2538 	 	 109 
  98 	 	 65 	 	 691 	 	 28 	 	 2398 	 	 2634 	 	 192 
  99 	 	 175 	 	 548 	 	 82 	 	 1406 	 	 1681 	 	 126 
  100 	 	 181 	 	 424 	 	 53 	 	 8 	 	 416 	 	 168 
 